p cnf 10 45
7 -10 -9 0
-10 6 -8 0
-9 3 -10 0
10 2 5 0
6 -4 -10 0
-10 -5 8 0
6 -4 9 0
-3 -10 2 0
2 -10 4 0
7 3 5 0
7 2 -8 0
-10 7 2 0
-9 -7 -4 0
-4 1 -2 0
-5 -4 -9 0
2 6 -10 0
8 -9 -7 0
1 6 5 0
-9 8 7 0
-9 5 6 0
4 5 -9 0
1 -9 -10 0
5 6 3 0
-8 5 3 0
-10 -4 -9 0
1 -8 5 0
-8 1 2 0
6 10 -4 0
7 -9 -1 0
-3 -4 -8 0
5 -4 -9 0
1 7 -9 0
5 -10 1 0
-9 -2 -10 0
-4 -9 -8 0
-10 -6 -9 0
-6 5 2 0
-10 3 4 0
2 -9 4 0
2 1 5 0
-1 5 -8 0
1 -6 3 0
-8 -10 1 0
3 -10 7 0
8 3 7 0
%
0